Minimize
	value: tt

Subject to
tt + 1000 s_1_1 > 0.0
tt - t_1_1 - 1006.353174 s_1_1  + 3.176587 s_1_8  + 3.176587 s_1_7  > -988.815300
tt + 1000 s_2_1 > 0.0
tt - t_2_1 - 1006.247524 s_2_1  + 3.123762 s_2_8  + 3.123762 s_2_7  > -990.757581
tt + 1000 s_1_2 > 0.0
tt - t_1_2 - 1003.176587 s_1_2  + 3.176587 s_1_7  > -988.802900
tt + 1000 s_2_2 > 0.0
tt - t_2_2 - 1003.123762 s_2_2  + 3.123762 s_2_7  > -990.872775
tt + 1000 s_1_3 > 0.0
tt - t_1_3 - 1006.353174 s_1_3  + 3.176587 s_1_8  + 3.176587 s_1_7  > -998.218867
tt + 1000 s_2_3 > 0.0
tt - t_2_3 - 1006.247524 s_2_3  + 3.123762 s_2_8  + 3.123762 s_2_7  > -998.121667
tt + 1000 s_1_4 > 0.0
tt - t_1_4 - 1003.176587 s_1_4  + 3.176587 s_1_7  > -997.670033
tt + 1000 s_2_4 > 0.0
tt - t_2_4 - 1003.123762 s_2_4  + 3.123762 s_2_7  > -997.148367
tt + 1000 s_1_5 > 0.0
tt - t_1_5 - 1003.176587 s_1_5  + 3.176587 s_1_8  > -994.712100
tt + 1000 s_2_5 > 0.0
tt - t_2_5 - 1003.123762 s_2_5  + 3.123762 s_2_8  > -995.425289
tt + 1000 s_1_6 > 0.0
tt - t_1_6 - 1019.059522 s_1_6  + 3.176587 s_1_3  + 3.176587 s_1_2  + 3.176587 s_1_4  + 3.176587 s_1_5  + 3.176587 s_1_7  + 3.176587 s_1_1  > -998.987500
tt + 1000 s_2_6 > 0.0
tt - t_2_6 - 1018.742571 s_2_6  + 3.123762 s_2_3  + 3.123762 s_2_2  + 3.123762 s_2_4  + 3.123762 s_2_5  + 3.123762 s_2_7  + 3.123762 s_2_1  > -998.340400
tt + 1000 s_1_7 > 0.0
tt - t_1_7 - 1000.000000 s_1_7  > -984.555167
tt + 1000 s_2_7 > 0.0
tt - t_2_7 - 1000.000000 s_2_7  > -993.131222
tt + 1000 s_1_8 > 0.0
tt - t_1_8 - 1000.000000 s_1_8  > -984.886900
tt + 1000 s_2_8 > 0.0
tt - t_2_8 - 1000.000000 s_2_8  > -993.540900
s_1_1 + s_2_1 = 1
s_1_2 + s_2_2 = 1
s_1_3 + s_2_3 = 1
s_1_4 + s_2_4 = 1
s_1_5 + s_2_5 = 1
s_1_6 + s_2_6 = 1
s_1_7 + s_2_7 = 1
s_1_8 + s_2_8 = 1
s_1_1 + s_1_2 + 1000 r_1_1_2 >= 2
- s_1_1 - s_1_2 - 1000 r_1_1_2 >= -1001
t_1_1 - t_1_2 - 1000.000000 u_1_1_2 - 3.176587 s_1_2  + 3.176587 s_1_7  + 2000.000000 r_1_1_2 > -988.802900
s_2_1 + s_2_2 + 1000 r_2_1_2 >= 2
- s_2_1 - s_2_2 - 1000 r_2_1_2 >= -1001
t_2_1 - t_2_2 - 1000.000000 u_2_1_2 - 3.123762 s_2_2  + 3.123762 s_2_7  + 2000.000000 r_2_1_2 > -990.872775
s_1_1 + s_1_3 + 1000 r_1_1_3 >= 2
- s_1_1 - s_1_3 - 1000 r_1_1_3 >= -1001
t_1_1 - t_1_3 - 1000.000000 u_1_1_3 - 6.353174 s_1_3  + 3.176587 s_1_8  + 3.176587 s_1_7  + 2000.000000 r_1_1_3 > -998.218867
s_2_1 + s_2_3 + 1000 r_2_1_3 >= 2
- s_2_1 - s_2_3 - 1000 r_2_1_3 >= -1001
t_2_1 - t_2_3 - 1000.000000 u_2_1_3 - 6.247524 s_2_3  + 3.123762 s_2_8  + 3.123762 s_2_7  + 2000.000000 r_2_1_3 > -998.121667
s_1_1 + s_1_4 + 1000 r_1_1_4 >= 2
- s_1_1 - s_1_4 - 1000 r_1_1_4 >= -1001
t_1_1 - t_1_4 - 1000.000000 u_1_1_4 - 3.176587 s_1_4  + 3.176587 s_1_7  + 2000.000000 r_1_1_4 > -997.670033
s_2_1 + s_2_4 + 1000 r_2_1_4 >= 2
- s_2_1 - s_2_4 - 1000 r_2_1_4 >= -1001
t_2_1 - t_2_4 - 1000.000000 u_2_1_4 - 3.123762 s_2_4  + 3.123762 s_2_7  + 2000.000000 r_2_1_4 > -997.148367
s_1_1 + s_1_5 + 1000 r_1_1_5 >= 2
- s_1_1 - s_1_5 - 1000 r_1_1_5 >= -1001
t_1_1 - t_1_5 - 1000.000000 u_1_1_5 - 3.176587 s_1_5  + 3.176587 s_1_8  + 2000.000000 r_1_1_5 > -994.712100
s_2_1 + s_2_5 + 1000 r_2_1_5 >= 2
- s_2_1 - s_2_5 - 1000 r_2_1_5 >= -1001
t_2_1 - t_2_5 - 1000.000000 u_2_1_5 - 3.123762 s_2_5  + 3.123762 s_2_8  + 2000.000000 r_2_1_5 > -995.425289
t_1_6 - t_1_1 - 1006.353174 s_1_1  + 3.176587 s_1_8  + 3.176587 s_1_7  > -988.815300
t_1_6 - t_2_1 - 1006.247524 s_2_1  + 3.123762 s_2_8  + 3.123762 s_2_7  > -990.757581
t_2_6 - t_1_1 - 1006.353174 s_1_1  + 3.176587 s_1_8  + 3.176587 s_1_7  > -988.815300
t_2_6 - t_2_1 - 1006.247524 s_2_1  + 3.123762 s_2_8  + 3.123762 s_2_7  > -990.757581
t_1_1 - t_1_7 - 1000.000000 s_1_7  > -984.555167
t_1_1 - t_2_7 - 1000.000000 s_2_7  > -993.131222
t_2_1 - t_1_7 - 1000.000000 s_1_7  > -984.555167
t_2_1 - t_2_7 - 1000.000000 s_2_7  > -993.131222
t_1_1 - t_1_8 - 1000.000000 s_1_8  > -984.886900
t_1_1 - t_2_8 - 1000.000000 s_2_8  > -993.540900
t_2_1 - t_1_8 - 1000.000000 s_1_8  > -984.886900
t_2_1 - t_2_8 - 1000.000000 s_2_8  > -993.540900
s_1_2 + s_1_1 + 1000 r_1_1_2 >= 2
- s_1_2 - s_1_1 - 1000 r_1_1_2 >= -1001
t_1_2 - t_1_1 + 1000.000000 u_1_1_2 - 6.353174 s_1_1  + 3.176587 s_1_8  + 3.176587 s_1_7  + 2000.000000 r_1_1_2 > 11.184700
s_2_2 + s_2_1 + 1000 r_2_1_2 >= 2
- s_2_2 - s_2_1 - 1000 r_2_1_2 >= -1001
t_2_2 - t_2_1 + 1000.000000 u_2_1_2 - 6.247524 s_2_1  + 3.123762 s_2_8  + 3.123762 s_2_7  + 2000.000000 r_2_1_2 > 9.242419
s_1_2 + s_1_3 + 1000 r_1_2_3 >= 2
- s_1_2 - s_1_3 - 1000 r_1_2_3 >= -1001
t_1_2 - t_1_3 - 1000.000000 u_1_2_3 - 6.353174 s_1_3  + 3.176587 s_1_8  + 3.176587 s_1_7  + 2000.000000 r_1_2_3 > -998.218867
s_2_2 + s_2_3 + 1000 r_2_2_3 >= 2
- s_2_2 - s_2_3 - 1000 r_2_2_3 >= -1001
t_2_2 - t_2_3 - 1000.000000 u_2_2_3 - 6.247524 s_2_3  + 3.123762 s_2_8  + 3.123762 s_2_7  + 2000.000000 r_2_2_3 > -998.121667
s_1_2 + s_1_4 + 1000 r_1_2_4 >= 2
- s_1_2 - s_1_4 - 1000 r_1_2_4 >= -1001
t_1_2 - t_1_4 - 1000.000000 u_1_2_4 - 3.176587 s_1_4  + 3.176587 s_1_7  + 2000.000000 r_1_2_4 > -997.670033
s_2_2 + s_2_4 + 1000 r_2_2_4 >= 2
- s_2_2 - s_2_4 - 1000 r_2_2_4 >= -1001
t_2_2 - t_2_4 - 1000.000000 u_2_2_4 - 3.123762 s_2_4  + 3.123762 s_2_7  + 2000.000000 r_2_2_4 > -997.148367
s_1_2 + s_1_5 + 1000 r_1_2_5 >= 2
- s_1_2 - s_1_5 - 1000 r_1_2_5 >= -1001
t_1_2 - t_1_5 - 1000.000000 u_1_2_5 - 3.176587 s_1_5  + 3.176587 s_1_8  + 2000.000000 r_1_2_5 > -994.712100
s_2_2 + s_2_5 + 1000 r_2_2_5 >= 2
- s_2_2 - s_2_5 - 1000 r_2_2_5 >= -1001
t_2_2 - t_2_5 - 1000.000000 u_2_2_5 - 3.123762 s_2_5  + 3.123762 s_2_8  + 2000.000000 r_2_2_5 > -995.425289
t_1_6 - t_1_2 - 1003.176587 s_1_2  + 3.176587 s_1_7  > -988.802900
t_1_6 - t_2_2 - 1003.123762 s_2_2  + 3.123762 s_2_7  > -990.872775
t_2_6 - t_1_2 - 1003.176587 s_1_2  + 3.176587 s_1_7  > -988.802900
t_2_6 - t_2_2 - 1003.123762 s_2_2  + 3.123762 s_2_7  > -990.872775
t_1_2 - t_1_7 - 1000.000000 s_1_7  > -984.555167
t_1_2 - t_2_7 - 1000.000000 s_2_7  > -993.131222
t_2_2 - t_1_7 - 1000.000000 s_1_7  > -984.555167
t_2_2 - t_2_7 - 1000.000000 s_2_7  > -993.131222
s_1_2 + s_1_8 + 1000 r_1_2_8 >= 2
- s_1_2 - s_1_8 - 1000 r_1_2_8 >= -1001
t_1_2 - t_1_8 - 1000.000000 u_1_2_8 - 0.000000 s_1_8  + 2000.000000 r_1_2_8 > -984.886900
s_2_2 + s_2_8 + 1000 r_2_2_8 >= 2
- s_2_2 - s_2_8 - 1000 r_2_2_8 >= -1001
t_2_2 - t_2_8 - 1000.000000 u_2_2_8 - 0.000000 s_2_8  + 2000.000000 r_2_2_8 > -993.540900
s_1_3 + s_1_1 + 1000 r_1_1_3 >= 2
- s_1_3 - s_1_1 - 1000 r_1_1_3 >= -1001
t_1_3 - t_1_1 + 1000.000000 u_1_1_3 - 6.353174 s_1_1  + 3.176587 s_1_8  + 3.176587 s_1_7  + 2000.000000 r_1_1_3 > 11.184700
s_2_3 + s_2_1 + 1000 r_2_1_3 >= 2
- s_2_3 - s_2_1 - 1000 r_2_1_3 >= -1001
t_2_3 - t_2_1 + 1000.000000 u_2_1_3 - 6.247524 s_2_1  + 3.123762 s_2_8  + 3.123762 s_2_7  + 2000.000000 r_2_1_3 > 9.242419
s_1_3 + s_1_2 + 1000 r_1_2_3 >= 2
- s_1_3 - s_1_2 - 1000 r_1_2_3 >= -1001
t_1_3 - t_1_2 + 1000.000000 u_1_2_3 - 3.176587 s_1_2  + 3.176587 s_1_7  + 2000.000000 r_1_2_3 > 11.197100
s_2_3 + s_2_2 + 1000 r_2_2_3 >= 2
- s_2_3 - s_2_2 - 1000 r_2_2_3 >= -1001
t_2_3 - t_2_2 + 1000.000000 u_2_2_3 - 3.123762 s_2_2  + 3.123762 s_2_7  + 2000.000000 r_2_2_3 > 9.127225
s_1_3 + s_1_4 + 1000 r_1_3_4 >= 2
- s_1_3 - s_1_4 - 1000 r_1_3_4 >= -1001
t_1_3 - t_1_4 - 1000.000000 u_1_3_4 - 3.176587 s_1_4  + 3.176587 s_1_7  + 2000.000000 r_1_3_4 > -997.670033
s_2_3 + s_2_4 + 1000 r_2_3_4 >= 2
- s_2_3 - s_2_4 - 1000 r_2_3_4 >= -1001
t_2_3 - t_2_4 - 1000.000000 u_2_3_4 - 3.123762 s_2_4  + 3.123762 s_2_7  + 2000.000000 r_2_3_4 > -997.148367
s_1_3 + s_1_5 + 1000 r_1_3_5 >= 2
- s_1_3 - s_1_5 - 1000 r_1_3_5 >= -1001
t_1_3 - t_1_5 - 1000.000000 u_1_3_5 - 3.176587 s_1_5  + 3.176587 s_1_8  + 2000.000000 r_1_3_5 > -994.712100
s_2_3 + s_2_5 + 1000 r_2_3_5 >= 2
- s_2_3 - s_2_5 - 1000 r_2_3_5 >= -1001
t_2_3 - t_2_5 - 1000.000000 u_2_3_5 - 3.123762 s_2_5  + 3.123762 s_2_8  + 2000.000000 r_2_3_5 > -995.425289
t_1_6 - t_1_3 - 1006.353174 s_1_3  + 3.176587 s_1_8  + 3.176587 s_1_7  > -998.218867
t_1_6 - t_2_3 - 1006.247524 s_2_3  + 3.123762 s_2_8  + 3.123762 s_2_7  > -998.121667
t_2_6 - t_1_3 - 1006.353174 s_1_3  + 3.176587 s_1_8  + 3.176587 s_1_7  > -998.218867
t_2_6 - t_2_3 - 1006.247524 s_2_3  + 3.123762 s_2_8  + 3.123762 s_2_7  > -998.121667
t_1_3 - t_1_7 - 1000.000000 s_1_7  > -984.555167
t_1_3 - t_2_7 - 1000.000000 s_2_7  > -993.131222
t_2_3 - t_1_7 - 1000.000000 s_1_7  > -984.555167
t_2_3 - t_2_7 - 1000.000000 s_2_7  > -993.131222
t_1_3 - t_1_8 - 1000.000000 s_1_8  > -984.886900
t_1_3 - t_2_8 - 1000.000000 s_2_8  > -993.540900
t_2_3 - t_1_8 - 1000.000000 s_1_8  > -984.886900
t_2_3 - t_2_8 - 1000.000000 s_2_8  > -993.540900
s_1_4 + s_1_1 + 1000 r_1_1_4 >= 2
- s_1_4 - s_1_1 - 1000 r_1_1_4 >= -1001
t_1_4 - t_1_1 + 1000.000000 u_1_1_4 - 6.353174 s_1_1  + 3.176587 s_1_8  + 3.176587 s_1_7  + 2000.000000 r_1_1_4 > 11.184700
s_2_4 + s_2_1 + 1000 r_2_1_4 >= 2
- s_2_4 - s_2_1 - 1000 r_2_1_4 >= -1001
t_2_4 - t_2_1 + 1000.000000 u_2_1_4 - 6.247524 s_2_1  + 3.123762 s_2_8  + 3.123762 s_2_7  + 2000.000000 r_2_1_4 > 9.242419
s_1_4 + s_1_2 + 1000 r_1_2_4 >= 2
- s_1_4 - s_1_2 - 1000 r_1_2_4 >= -1001
t_1_4 - t_1_2 + 1000.000000 u_1_2_4 - 3.176587 s_1_2  + 3.176587 s_1_7  + 2000.000000 r_1_2_4 > 11.197100
s_2_4 + s_2_2 + 1000 r_2_2_4 >= 2
- s_2_4 - s_2_2 - 1000 r_2_2_4 >= -1001
t_2_4 - t_2_2 + 1000.000000 u_2_2_4 - 3.123762 s_2_2  + 3.123762 s_2_7  + 2000.000000 r_2_2_4 > 9.127225
s_1_4 + s_1_3 + 1000 r_1_3_4 >= 2
- s_1_4 - s_1_3 - 1000 r_1_3_4 >= -1001
t_1_4 - t_1_3 + 1000.000000 u_1_3_4 - 6.353174 s_1_3  + 3.176587 s_1_8  + 3.176587 s_1_7  + 2000.000000 r_1_3_4 > 1.781133
s_2_4 + s_2_3 + 1000 r_2_3_4 >= 2
- s_2_4 - s_2_3 - 1000 r_2_3_4 >= -1001
t_2_4 - t_2_3 + 1000.000000 u_2_3_4 - 6.247524 s_2_3  + 3.123762 s_2_8  + 3.123762 s_2_7  + 2000.000000 r_2_3_4 > 1.878333
s_1_4 + s_1_5 + 1000 r_1_4_5 >= 2
- s_1_4 - s_1_5 - 1000 r_1_4_5 >= -1001
t_1_4 - t_1_5 - 1000.000000 u_1_4_5 - 3.176587 s_1_5  + 3.176587 s_1_8  + 2000.000000 r_1_4_5 > -994.712100
s_2_4 + s_2_5 + 1000 r_2_4_5 >= 2
- s_2_4 - s_2_5 - 1000 r_2_4_5 >= -1001
t_2_4 - t_2_5 - 1000.000000 u_2_4_5 - 3.123762 s_2_5  + 3.123762 s_2_8  + 2000.000000 r_2_4_5 > -995.425289
t_1_6 - t_1_4 - 1003.176587 s_1_4  + 3.176587 s_1_7  > -997.670033
t_1_6 - t_2_4 - 1003.123762 s_2_4  + 3.123762 s_2_7  > -997.148367
t_2_6 - t_1_4 - 1003.176587 s_1_4  + 3.176587 s_1_7  > -997.670033
t_2_6 - t_2_4 - 1003.123762 s_2_4  + 3.123762 s_2_7  > -997.148367
t_1_4 - t_1_7 - 1000.000000 s_1_7  > -984.555167
t_1_4 - t_2_7 - 1000.000000 s_2_7  > -993.131222
t_2_4 - t_1_7 - 1000.000000 s_1_7  > -984.555167
t_2_4 - t_2_7 - 1000.000000 s_2_7  > -993.131222
s_1_4 + s_1_8 + 1000 r_1_4_8 >= 2
- s_1_4 - s_1_8 - 1000 r_1_4_8 >= -1001
t_1_4 - t_1_8 - 1000.000000 u_1_4_8 - 0.000000 s_1_8  + 2000.000000 r_1_4_8 > -984.886900
s_2_4 + s_2_8 + 1000 r_2_4_8 >= 2
- s_2_4 - s_2_8 - 1000 r_2_4_8 >= -1001
t_2_4 - t_2_8 - 1000.000000 u_2_4_8 - 0.000000 s_2_8  + 2000.000000 r_2_4_8 > -993.540900
s_1_5 + s_1_1 + 1000 r_1_1_5 >= 2
- s_1_5 - s_1_1 - 1000 r_1_1_5 >= -1001
t_1_5 - t_1_1 + 1000.000000 u_1_1_5 - 6.353174 s_1_1  + 3.176587 s_1_8  + 3.176587 s_1_7  + 2000.000000 r_1_1_5 > 11.184700
s_2_5 + s_2_1 + 1000 r_2_1_5 >= 2
- s_2_5 - s_2_1 - 1000 r_2_1_5 >= -1001
t_2_5 - t_2_1 + 1000.000000 u_2_1_5 - 6.247524 s_2_1  + 3.123762 s_2_8  + 3.123762 s_2_7  + 2000.000000 r_2_1_5 > 9.242419
s_1_5 + s_1_2 + 1000 r_1_2_5 >= 2
- s_1_5 - s_1_2 - 1000 r_1_2_5 >= -1001
t_1_5 - t_1_2 + 1000.000000 u_1_2_5 - 3.176587 s_1_2  + 3.176587 s_1_7  + 2000.000000 r_1_2_5 > 11.197100
s_2_5 + s_2_2 + 1000 r_2_2_5 >= 2
- s_2_5 - s_2_2 - 1000 r_2_2_5 >= -1001
t_2_5 - t_2_2 + 1000.000000 u_2_2_5 - 3.123762 s_2_2  + 3.123762 s_2_7  + 2000.000000 r_2_2_5 > 9.127225
s_1_5 + s_1_3 + 1000 r_1_3_5 >= 2
- s_1_5 - s_1_3 - 1000 r_1_3_5 >= -1001
t_1_5 - t_1_3 + 1000.000000 u_1_3_5 - 6.353174 s_1_3  + 3.176587 s_1_8  + 3.176587 s_1_7  + 2000.000000 r_1_3_5 > 1.781133
s_2_5 + s_2_3 + 1000 r_2_3_5 >= 2
- s_2_5 - s_2_3 - 1000 r_2_3_5 >= -1001
t_2_5 - t_2_3 + 1000.000000 u_2_3_5 - 6.247524 s_2_3  + 3.123762 s_2_8  + 3.123762 s_2_7  + 2000.000000 r_2_3_5 > 1.878333
s_1_5 + s_1_4 + 1000 r_1_4_5 >= 2
- s_1_5 - s_1_4 - 1000 r_1_4_5 >= -1001
t_1_5 - t_1_4 + 1000.000000 u_1_4_5 - 3.176587 s_1_4  + 3.176587 s_1_7  + 2000.000000 r_1_4_5 > 2.329967
s_2_5 + s_2_4 + 1000 r_2_4_5 >= 2
- s_2_5 - s_2_4 - 1000 r_2_4_5 >= -1001
t_2_5 - t_2_4 + 1000.000000 u_2_4_5 - 3.123762 s_2_4  + 3.123762 s_2_7  + 2000.000000 r_2_4_5 > 2.851633
t_1_6 - t_1_5 - 1003.176587 s_1_5  + 3.176587 s_1_8  > -994.712100
t_1_6 - t_2_5 - 1003.123762 s_2_5  + 3.123762 s_2_8  > -995.425289
t_2_6 - t_1_5 - 1003.176587 s_1_5  + 3.176587 s_1_8  > -994.712100
t_2_6 - t_2_5 - 1003.123762 s_2_5  + 3.123762 s_2_8  > -995.425289
s_1_5 + s_1_7 + 1000 r_1_5_7 >= 2
- s_1_5 - s_1_7 - 1000 r_1_5_7 >= -1001
t_1_5 - t_1_7 - 1000.000000 u_1_5_7 - 0.000000 s_1_7  + 2000.000000 r_1_5_7 > -984.555167
s_2_5 + s_2_7 + 1000 r_2_5_7 >= 2
- s_2_5 - s_2_7 - 1000 r_2_5_7 >= -1001
t_2_5 - t_2_7 - 1000.000000 u_2_5_7 - 0.000000 s_2_7  + 2000.000000 r_2_5_7 > -993.131222
t_1_5 - t_1_8 - 1000.000000 s_1_8  > -984.886900
t_1_5 - t_2_8 - 1000.000000 s_2_8  > -993.540900
t_2_5 - t_1_8 - 1000.000000 s_1_8  > -984.886900
t_2_5 - t_2_8 - 1000.000000 s_2_8  > -993.540900
t_1_6 - t_1_7 - 1000.000000 s_1_7  > -984.555167
t_1_6 - t_2_7 - 1000.000000 s_2_7  > -993.131222
t_2_6 - t_1_7 - 1000.000000 s_1_7  > -984.555167
t_2_6 - t_2_7 - 1000.000000 s_2_7  > -993.131222
s_1_7 + s_1_5 + 1000 r_1_5_7 >= 2
- s_1_7 - s_1_5 - 1000 r_1_5_7 >= -1001
t_1_7 - t_1_5 + 1000.000000 u_1_5_7 - 3.176587 s_1_5  + 3.176587 s_1_8  + 2000.000000 r_1_5_7 > 5.287900
s_2_7 + s_2_5 + 1000 r_2_5_7 >= 2
- s_2_7 - s_2_5 - 1000 r_2_5_7 >= -1001
t_2_7 - t_2_5 + 1000.000000 u_2_5_7 - 3.123762 s_2_5  + 3.123762 s_2_8  + 2000.000000 r_2_5_7 > 4.574711
s_1_7 + s_1_8 + 1000 r_1_7_8 >= 2
- s_1_7 - s_1_8 - 1000 r_1_7_8 >= -1001
t_1_7 - t_1_8 - 1000.000000 u_1_7_8 - 0.000000 s_1_8  + 2000.000000 r_1_7_8 > -984.886900
s_2_7 + s_2_8 + 1000 r_2_7_8 >= 2
- s_2_7 - s_2_8 - 1000 r_2_7_8 >= -1001
t_2_7 - t_2_8 - 1000.000000 u_2_7_8 - 0.000000 s_2_8  + 2000.000000 r_2_7_8 > -993.540900
s_1_8 + s_1_2 + 1000 r_1_2_8 >= 2
- s_1_8 - s_1_2 - 1000 r_1_2_8 >= -1001
t_1_8 - t_1_2 + 1000.000000 u_1_2_8 - 3.176587 s_1_2  + 3.176587 s_1_7  + 2000.000000 r_1_2_8 > 11.197100
s_2_8 + s_2_2 + 1000 r_2_2_8 >= 2
- s_2_8 - s_2_2 - 1000 r_2_2_8 >= -1001
t_2_8 - t_2_2 + 1000.000000 u_2_2_8 - 3.123762 s_2_2  + 3.123762 s_2_7  + 2000.000000 r_2_2_8 > 9.127225
s_1_8 + s_1_4 + 1000 r_1_4_8 >= 2
- s_1_8 - s_1_4 - 1000 r_1_4_8 >= -1001
t_1_8 - t_1_4 + 1000.000000 u_1_4_8 - 3.176587 s_1_4  + 3.176587 s_1_7  + 2000.000000 r_1_4_8 > 2.329967
s_2_8 + s_2_4 + 1000 r_2_4_8 >= 2
- s_2_8 - s_2_4 - 1000 r_2_4_8 >= -1001
t_2_8 - t_2_4 + 1000.000000 u_2_4_8 - 3.123762 s_2_4  + 3.123762 s_2_7  + 2000.000000 r_2_4_8 > 2.851633
s_1_8 + s_1_7 + 1000 r_1_7_8 >= 2
- s_1_8 - s_1_7 - 1000 r_1_7_8 >= -1001
t_1_8 - t_1_7 + 1000.000000 u_1_7_8 - 0.000000 s_1_7  + 2000.000000 r_1_7_8 > 15.444833
s_2_8 + s_2_7 + 1000 r_2_7_8 >= 2
- s_2_8 - s_2_7 - 1000 r_2_7_8 >= -1001
t_2_8 - t_2_7 + 1000.000000 u_2_7_8 - 0.000000 s_2_7  + 2000.000000 r_2_7_8 > 6.868778
Binary
s_1_1
s_2_1
s_1_2
s_2_2
s_1_3
s_2_3
s_1_4
s_2_4
s_1_5
s_2_5
s_1_6
s_2_6
s_1_7
s_2_7
s_1_8
s_2_8
u_1_1_2
r_1_1_2
u_2_1_2
r_2_1_2
u_1_1_3
r_1_1_3
u_2_1_3
r_2_1_3
u_1_1_4
r_1_1_4
u_2_1_4
r_2_1_4
u_1_1_5
r_1_1_5
u_2_1_5
r_2_1_5
u_1_2_3
r_1_2_3
u_2_2_3
r_2_2_3
u_1_2_4
r_1_2_4
u_2_2_4
r_2_2_4
u_1_2_5
r_1_2_5
u_2_2_5
r_2_2_5
u_1_2_8
r_1_2_8
u_2_2_8
r_2_2_8
u_1_3_4
r_1_3_4
u_2_3_4
r_2_3_4
u_1_3_5
r_1_3_5
u_2_3_5
r_2_3_5
u_1_4_5
r_1_4_5
u_2_4_5
r_2_4_5
u_1_4_8
r_1_4_8
u_2_4_8
r_2_4_8
u_1_5_7
r_1_5_7
u_2_5_7
r_2_5_7
u_1_7_8
r_1_7_8
u_2_7_8
r_2_7_8

End
